35 35
22
3 3 26 32
3 4 29 31
3 5 32 30
3 6 32 24
3 7 32 17
3 8 32 9
3 9 32 0
3 10 26 22
3 12 29 19
3 19 29 0
3 22 26 0
4 3 22 32
4 4 22 28
4 5 22 23
4 6 22 17
4 7 18 28
4 8 18 20
4 12 14 23
4 17 22 0
4 20 18 0
4 23 14 0
14 35 0 0
% time elapsed: 77.64 s
% time elapsed: 77.64 s
%%%mzn-stat: initTime=0.000354
%%%mzn-stat: solveTime=77.5519
%%%mzn-stat: solutions=188
%%%mzn-stat: variables=45
%%%mzn-stat: propagators=27
%%%mzn-stat: propagations=70295249
%%%mzn-stat: nodes=10823407
%%%mzn-stat: failures=5401514
%%%mzn-stat: restarts=514
%%%mzn-stat: peakDepth=80
%%%mzn-stat-end
